% File represents an instance of a Composite Structure problem to be solved by a CP framework
% Created on 2025-03-26 10:41:17.219
T = 50;
n = 9;
m = 12;
edges = [(2, 1),
(5, 4),
(8, 7),
(3, 2),
(6, 5),
(8, 9),
(4, 1),
(7, 4),
(5, 2),
(8, 5),
(6, 3),
(6, 9)];
counts = [|10, 8, 10, 8,
|10, 12, 10, 8,
|10, 14, 10, 10,
|10, 10, 10, 12,
|10, 12, 10, 14,
|10, 14, 10, 14,
|10, 10, 10, 18,
|10, 12, 10, 18,
|10, 12, 10, 14|];
